(set-logic ALL)
(set-option :produce-models true)
(define-fun-rec str.toLower ((x String)) String
  (ite (= x "")
      ""
      (let ((Head (str.at x 0)))
        (str.++ 
          (ite (and (<= 65 (str.to_code Head)) 
                     (<= (str.to_code Head) 90))
               (str.from_code (+ (str.to_code Head) 32))
               Head)
          (str.toLower (str.substr x 1 (- (str.len x) 1)))))))
(declare-fun sym811 () String)
(declare-fun sym209 () String)
(declare-fun sym3817 () String)
(declare-fun sym2319 () String)
(declare-fun sym2748 () String)
(declare-fun sym4738 () String)
(declare-fun sym2955 () String)
(declare-fun sym551 () String)
(declare-fun sym1249 () String)
(declare-fun sym1898 () String)
(declare-fun sym2104 () String)
(declare-fun sym3369 () String)
(declare-fun sym4634 () String)
(declare-fun sym1036 () String)
(declare-fun sym2532 () String)
(declare-fun sym3576 () String)
(declare-fun sym4213 () String)
(declare-fun sym1683 () String)
(declare-fun sym4420 () String)
(declare-fun sym1470 () String)
(declare-fun sym161 () String)
(declare-fun sym4020 () String)
(declare-fun sym3162 () String)

(assert (= (str.toLower (str.substr sym1470  0 1))"k" ))
(assert (not (= "" sym1036 )))
(assert (= (str.toLower (str.substr sym3162  0 1))"k" ))
(assert (not (= (str.toLower (str.substr sym1683  0 1))"p" )))
(assert (= (str.toLower (str.substr sym551  0 1))"k" ))
(assert (not (= (str.toLower (str.substr sym2104  0 1))"g" )))
(assert (not (= (str.toLower (str.substr sym2104  0 1))"l" )))
(assert (not (= "" (str.toLower (str.substr sym4738  0 1)))))
(assert (not (= "" sym4420 )))
(assert (not (= "y" "n" )))
(assert (not (= (str.toLower (str.substr sym1249  0 1))"q" )))
(assert (not (= (str.toLower (str.substr sym2532  0 1))"g" )))
(assert (not (= (str.toLower (str.substr sym2104  0 1))"k" )))
(assert (not (= (str.toLower (str.substr sym1683  0 1))"k" )))
(assert (not (= "" sym3369 )))
(assert (not (= (str.toLower (str.substr sym1683  0 1))"l" )))
(assert (not (= (str.toLower (str.substr sym4213  0 1))"q" )))
(assert (not (= (str.toLower (str.substr sym2104  0 1))"p" )))
(assert (= (str.toLower (str.substr sym4020  0 1))"k" ))
(assert (not (= (str.toLower (str.substr sym2104  0 1))"q" )))
(assert (not (= "" sym4738 )))
(assert (not (= (str.toLower (str.substr sym3817  0 1))"g" )))
(assert (not (= (str.toLower (str.substr sym2319  0 1))"q" )))
(assert (= (str.toLower (str.substr sym1683  0 1))"h" ))
(assert (not (= "" (str.toLower (str.substr sym209  0 1)))))
(assert (not (= (str.toLower (str.substr sym551  0 1))"p" )))
(assert (not (= (str.toLower (str.substr sym2532  0 1))"r" )))
(assert (not (= (str.toLower (str.substr sym1470  0 1))"p" )))
(assert (not (= "" sym2532 )))
(assert (not (= "" sym551 )))
(assert (not (= (str.toLower (str.substr sym4420  0 1))"q" )))
(assert (not (= (str.toLower (str.substr sym2955  0 1))"q" )))
(assert (= (str.toLower (str.substr sym1036  0 1))"k" ))
(assert (not (= (str.toLower (str.substr sym3817  0 1))"p" )))
(assert (not (= (str.toLower (str.substr sym811  0 1))"k" )))
(assert (not (= (str.toLower (str.substr sym1898  0 1))"p" )))
(assert (not (= (str.toLower (str.substr sym1249  0 1))"l" )))
(assert (= (str.toLower (str.substr sym3576  0 1))"k" ))
(assert (= (str.toLower (str.substr sym3817  0 1))"r" ))
(assert (not (= (str.toLower (str.substr sym4738  0 1))"y" )))
(assert (not (= "" sym3817 )))
(assert (not (= (str.toLower (str.substr sym2532  0 1))"k" )))
(assert (not (= (str.toLower (str.substr sym2319  0 1))"p" )))
(assert (not (= "" sym2955 )))
(assert (not (= "" sym1898 )))
(assert (not (= (str.toLower (str.substr sym811  0 1))"p" )))
(assert (not (= (str.toLower (str.substr sym2532  0 1))"l" )))
(assert (= (str.toLower (str.substr sym1898  0 1))"k" ))
(assert (not (= "" sym811 )))
(assert (= (str.toLower (str.substr sym2955  0 1))"k" ))
(assert (not (= "n" "y" )))
(assert (not (= (str.toLower (str.substr sym1036  0 1))"p" )))
(assert (= (str.toLower (str.substr sym2532  0 1))"h" ))
(assert (not (= (str.toLower (str.substr sym4213  0 1))"p" )))
(assert (not (= "" "y" )))
(assert (not (= (str.toLower (str.substr sym1249  0 1))"r" )))
(assert (not (= (str.toLower (str.substr sym2748  0 1))"q" )))
(assert (not (= (str.toLower (str.substr sym3162  0 1))"q" )))
(assert (not (= (str.toLower (str.substr sym4634  0 1))"q" )))
(assert (not (= (str.toLower (str.substr sym4020  0 1))"p" )))
(assert (not (= (str.toLower (str.substr sym1249  0 1))"p" )))
(assert (= (str.toLower (str.substr sym2748  0 1))"k" ))
(assert (= (str.toLower (str.substr sym811  0 1))"g" ))
(assert (= (str.toLower (str.substr sym2319  0 1))"k" ))
(assert (not (= (str.toLower (str.substr sym3817  0 1))"k" )))
(assert (not (= (str.toLower (str.substr sym811  0 1))"q" )))
(assert (not (= (str.toLower (str.substr sym2532  0 1))"q" )))
(assert (not (= (str.toLower (str.substr sym2748  0 1))"p" )))
(assert (not (= "" sym3576 )))
(assert (not (= (str.toLower (str.substr sym1683  0 1))"q" )))
(assert (= (str.toLower (str.substr sym209  0 1))"y" ))
(assert (= "y" "y" ))
(assert (not (= (str.toLower (str.substr sym1683  0 1))"r" )))
(assert (= "" sym161 ))
(assert (not (= (str.toLower (str.substr sym1898  0 1))"q" )))
(assert (not (= (str.toLower (str.substr sym3369  0 1))"q" )))
(assert (not (= "" sym1249 )))
(assert (not (= "" sym4213 )))
(assert (not (= (str.toLower (str.substr sym1036  0 1))"q" )))
(assert (not (= "" sym4634 )))
(assert (= (str.toLower (str.substr sym2104  0 1))"h" ))
(assert (not (= (str.toLower (str.substr sym3162  0 1))"p" )))
(assert (= (str.toLower (str.substr sym4420  0 1))"k" ))
(assert (not (= "" "q" )))
(assert (not (= (str.toLower (str.substr sym3817  0 1))"q" )))
(assert (not (= (str.toLower (str.substr sym2955  0 1))"p" )))
(assert (not (= "" sym209 )))
(assert (not (= (str.toLower (str.substr sym3576  0 1))"p" )))
(assert (not (= "" "y" )))
(assert (not (= "" sym3162 )))
(assert (not (= "" sym2748 )))
(assert (not (= (str.toLower (str.substr sym4420  0 1))"p" )))
(assert (not (= (str.toLower (str.substr sym1249  0 1))"k" )))
(assert (not (= (str.toLower (str.substr sym3576  0 1))"q" )))
(assert (not (= (str.toLower (str.substr sym1249  0 1))"g" )))
(assert (not (= "" sym2104 )))
(assert (= (str.toLower (str.substr sym1249  0 1))"h" ))
(assert (not (= "" sym1683 )))
(assert (not (= (str.toLower (str.substr sym4634  0 1))"p" )))
(assert (= (str.toLower (str.substr sym4634  0 1))"k" ))
(assert (not (= (str.toLower (str.substr sym4020  0 1))"q" )))
(assert (not (= (str.toLower (str.substr sym2104  0 1))"r" )))
(assert (not (= (str.toLower (str.substr sym551  0 1))"q" )))
(assert (= "" "" ))
(assert (not (= "" sym2319 )))
(assert (not (= "" sym1470 )))
(assert (not (= "" sym4020 )))
(assert (= (str.toLower (str.substr sym4213  0 1))"k" ))
(assert (= (str.toLower (str.substr sym3369  0 1))"k" ))
(assert (not (= (str.toLower (str.substr sym2532  0 1))"p" )))
(assert (not (= (str.toLower (str.substr sym1683  0 1))"g" )))
(assert (not (= (str.toLower (str.substr sym3369  0 1))"p" )))
(assert (not (= (str.toLower (str.substr sym1470  0 1))"q" )))
(assert (not (= "" "n" )))
(check-sat)
(get-model)
(exit)
